#NELECT=930.0711617900769

NPAR=6
#ISTART = 0
#ICHARG = 2
#LWAVE = F 
#LCHARG = F

ENCUT = 300
EDIFF = 1e-5
ALGO = F
GGA = PE
IVDW = 11
PREC = L
LREAL= A
ISMEAR = 0
SIGMA = 0.1

LSOL = .TRUE.
EB_K = 78.4
LAMBDA_D_K = 3.0
TAU = 0.0
#NC_K = 0.00025

IBRION=0
TEBEG=300
TEEND=300
MDALGO=2
SMASS=0

INCREM=0.001
POTIM=1     
NSW=1       

LBLUEOUT=T

