Pt  H  O 
 1.0000000000000000
    11.2486546999999995    0.0000000000000000    0.0000000000000000
     0.0000000000000000    9.7416207000000004    0.0000000000000000
     0.0000000000000000    0.0000000000000000   32.0000000000000000
 Pt  H   O  
  64  72  36
Selective dynamics
Cartesian
  7.0304091700000004  0.8118017300000000  3.2961220199999999   F   F   F
  9.8425728400000008  0.8118017300000000  3.2961220199999999   F   F   F
  0.0000000000000000  3.2472069000000001  3.2961220199999999   F   F   F
  2.8121636699999999  3.2472069000000001  3.2961220199999999   F   F   F
  5.6243273399999998  3.2472069000000001  3.2961220199999999   F   F   F
  8.4364910099999992  3.2472069000000001  3.2961220199999999   F   F   F
  4.2182455000000001  5.6826120800000002  3.2961220199999999   F   F   F
  7.0304091700000004  5.6826120800000002  3.2961220199999999   F   F   F
  9.8425728400000008  5.6826120800000002  3.2961220199999999   F   F   F
  4.2182455000000001  0.8118017300000000  3.2961220199999999   F   F   F
  0.0000000000000000  8.1180172600000002  3.2961220199999999   F   F   F
  2.8121636699999999  8.1180172600000002  3.2961220199999999   F   F   F
  1.4060818300000000  5.6826120800000002  3.2961220199999999   F   F   F
  1.4060818300000000  0.8118017300000000  3.2961220199999999   F   F   F
  1.4060818300000000  7.3062155300000002  1.0000000000000000   F   F   F
  7.0304091700000004  7.3062155300000002  1.0000000000000000   F   F   F
  4.2182455000000001  7.3062155300000002  1.0000000000000000   F   F   F
  5.6243273399999998  8.1180172600000002  3.2961220199999999   F   F   F
  8.4364910099999992  4.8708103500000002  1.0000000000000000   F   F   F
  5.6243273399999998  4.8708103500000002  1.0000000000000000   F   F   F
  2.8121636699999999  4.8708103500000002  1.0000000000000000   F   F   F
  0.0000000000000000  4.8708103500000002  1.0000000000000000   F   F   F
  9.8425728400000008  2.4354051800000001  1.0000000000000000   F   F   F
  7.0304091700000004  2.4354051800000001  1.0000000000000000   F   F   F
  4.2182455000000001  2.4354051800000001  1.0000000000000000   F   F   F
  1.4060818300000000  2.4354051800000001  1.0000000000000000   F   F   F
  8.4364910099999992  0.0000000000000000  1.0000000000000000   F   F   F
  5.6243273399999998  0.0000000000000000  1.0000000000000000   F   F   F
  2.8121636699999999  0.0000000000000000  1.0000000000000000   F   F   F
  9.8425728400000008  7.3062155300000002  1.0000000000000000   F   F   F
  8.4364910099999992  8.1180172600000002  3.2961220199999999   F   F   F
  1.2967536500000001  4.1782525300000000  5.5331505200000004   T   T   T
  2.6870950300000001  1.7850597600000000  5.5589591199999999   T   T   T
  9.5384890299999991  7.5711040900000004  7.8669686800000003   T   T   T
  6.7593823799999999  7.7078297700000000  7.7905703300000004   T   T   T
  3.7848230100000002  7.6972861799999999  7.7923463300000000   T   T   T
  1.0711089800000000  7.6112900999999997  7.7914473800000001   T   T   T
  8.1336136200000002  5.1292746999999999  7.8962371899999999   T   T   T
  5.3319763399999998  5.0887764000000004  7.7195640200000000   T   T   T
  2.6112427500000002  5.2129096700000002  7.7364734999999998   T   T   T
 -0.1497349900000000  5.1878271600000003  7.8202665099999997   T   T   T
  9.5549136699999995  2.6954581599999998  7.8644941199999998   T   T   T
  6.7758461600000004  2.7059431300000001  7.8802477900000003   T   T   T
  3.7821905099999999  2.6893659900000002  7.9465057100000003   T   T   T
  1.0483249900000000  2.6749479100000002  7.9494685699999996   T   T   T
  8.1885856700000001  0.3990770000000000  7.8950544100000002   T   T   T
  5.0948375700000001  0.3316293300000000  7.8742913600000000   T   T   T
  2.4754814800000000  0.3323597800000000  7.8901130899999998   T   T   T
 -0.4176618200000000  0.2542195900000000  7.8816914000000002   T   T   T
  9.6482145599999996  8.9780066900000008  5.5131332100000003   T   T   T
  6.9052300000000004  8.9428702300000005  5.5195908700000000   T   T   T
  4.0295490999999997  9.0600655799999998  5.4804783800000001   T   T   T
  1.2611114400000001  9.1838909399999995  5.5455289299999997   T   T   T
  8.3105024000000007  6.5118627399999998  5.5980465700000002   T   T   T
  5.5178967999999999  6.5522142099999998  5.5466061199999999   T   T   T
  2.6771375200000000  6.5536594700000004  5.5137027300000003   T   T   T
 -0.1322723000000000  6.5949291099999998  5.5264601400000002   T   T   T
  9.7124149299999996  4.1544624600000004  5.5530655099999997   T   T   T
  6.9086514299999999  4.1847462100000001  5.5076701699999999   T   T   T
  3.9467763599999999  4.0955402799999998  5.4676261000000004   T   T   T
  8.2282569999999993  1.6651499900000000  5.5525663300000003   T   T   T
  5.5228576699999996  1.8237743099999999  5.5966873100000001   T   T   T
 -0.3108590800000000  1.8583329799999999  5.6140437700000003   T   T   T
  0.0000000000000000  0.0000000000000000  1.0000000000000000   F   F   F
  4.4709902399999999  7.8985675100000003 11.2404899500000006   T   T   T
  3.6054494699999999  7.0900137100000000 16.3017965999999994   T   T   T
  2.1456792500000001  6.6738309200000003 16.7359797899999982   T   T   T
  9.8370608199999996  8.3221844300000001 15.9883966599999994   T   T   T
  0.8903778000000000  8.6823468100000003 11.9196670099999995   T   T   T
 11.9615936200000004  8.7492076000000001 10.3377381300000000   T   T   T
  2.9261430399999999  2.6950521900000002 10.4502827600000003   T   T   T
  4.1722895600000003  3.7915128299999998 10.3928301899999997   T   T   T
  4.9555487899999999  9.6540221499999994 14.7675445900000000   T   T   T
  5.5182660300000004  1.3487807700000001 14.5423528999999991   T   T   T
  2.6880377599999998  1.7152344600000000 12.6823294299999993   T   T   T
  3.5509712100000002  1.1522663300000000 13.6431948399999996   T   T   T
  5.0520665899999999  4.8990893599999996 12.1095938099999998   T   T   T
  5.6562843599999999  5.2085339399999997 10.6325178499999993   T   T   T
 -1.4272797100000001  4.1820444800000001 17.5997414899999995   T   T   T
 -1.9619385899999999  3.9088870999999998 19.0595336499999988   T   T   T
 -0.1798653200000000  6.4729697699999997 17.3250775399999988   T   T   T
  5.4767155799999996  9.0699279799999992 18.0931312899999988   T   T   T
  8.5950131699999996  8.6438590000000008 15.0536041300000001   T   T   T
  5.9302529699999997  7.9445155999999999 14.5534544500000003   T   T   T
  4.9167015799999998  8.0490873399999998 13.3528599299999993   T   T   T
  8.8112962899999996  2.2513637499999999 11.2786302299999992   T   T   T
 -0.5585839800000000  1.9721864899999999 13.4966206599999996   T   T   T
  0.6332417100000000  2.7185649100000000 12.9619760300000006   T   T   T
  2.1166421199999998  2.6200732499999999 18.2432760800000011   T   T   T
  1.6620092500000001  0.6234003800000000 19.0463928799999991   T   T   T
  0.7025648300000000 -0.4572908100000000 19.6963947300000015   T   T   T
  3.4358294400000000  1.7184142000000000 18.2971197500000002   T   T   T
  0.6816314500000000  9.0865102300000000 14.2582061499999995   T   T   T
  1.9063684400000001  9.6835564400000003 13.4124582700000001   T   T   T
  7.9816137700000001  4.1636501700000004 10.6816509499999999   T   T   T
  5.4222001300000002  9.2262497799999998 11.3730240600000005   T   T   T
 -2.1609310599999998  2.3699525000000001 17.0658587399999995   T   T   T
  1.0351011800000001  5.4904909799999997  9.6756992000000004   T   T   T
  1.1673779000000000  5.8850540400000000 11.2257712999999999   T   T   T
  2.5035891200000000  7.6436512800000003 10.4768560799999992   T   T   T
  6.0566273199999996  1.3712695800000001 17.8853298900000013   T   T   T
  4.9677541500000002  0.9815107900000000 16.7845907899999993   T   T   T
  3.6090049999999998  6.4637683299999997 10.4772959100000005   T   T   T
  7.2881545100000000  1.8307781599999999 11.1788345499999995   T   T   T
 -0.6787096400000000  2.4224218799999999 16.6250600400000010   T   T   T
  8.8539360499999997  5.4043277200000004 11.1612354200000006   T   T   T
  4.7289062299999998  7.9006197100000000 19.0287882999999987   T   T   T
  3.0860071599999999  5.4502024499999999 15.4200297800000001   T   T   T
  2.7267162800000002  4.0107598299999996 14.8057770400000006   T   T   T
  5.0014201600000003  1.7315356799999999 11.0280259199999993   T   T   T
 -1.0055953600000000  1.6060517700000001  9.9565523900000006   T   T   T
  9.9942797399999996  0.6155987200000000 11.1026925999999992   T   T   T
  7.8308848099999997  2.7616471599999999 14.5380125200000005   T   T   T
  7.4597008899999997  2.4962981700000002 12.9535639899999993   T   T   T
 -0.6843266300000000  5.8651271800000000 12.1129811699999994   T   T   T
  2.0851519299999999  5.7079338200000000 13.7241291800000003   T   T   T
  9.5491173099999997  5.4102187700000002 13.1733838500000005   T   T   T
  0.8814223700000000  2.8568407900000001 15.2813976100000009   T   T   T
  7.5958105700000003  5.3277792200000000 18.1998868300000005   T   T   T
  6.4500536999999998  6.4683627699999997 18.1222711399999987   T   T   T
  8.2734917400000008 -0.8775969500000000 11.3654089099999993   T   T   T
  9.3528690399999999 -1.5475712900000000 12.2268225499999996   T   T   T
  7.7559507800000000  5.8910270300000001 15.7684110499999992   T   T   T
  6.9266951199999998  5.7732311500000000 14.4625898399999997   T   T   T
  1.8355190699999999  1.9139043300000000 16.2412819299999995   T   T   T
  1.4242676400000001  7.1560255200000000 13.4205635500000007   T   T   T
 11.5862098499999995  7.7136342999999998 17.9243104899999999   T   T   T
  6.0597034299999999  4.0455023299999997 13.6357163900000007   T   T   T
  0.6697060700000000  2.3038057200000002 10.8971094999999991   T   T   T
  6.2989870200000002  7.7139184199999997 10.5625512500000003   T   T   T
  8.6676282899999997 10.0547307700000008 17.1632018700000017   T   T   T
  8.3765697699999997  0.8558256900000000 18.5632894499999992   T   T   T
  4.6135001500000001  4.8718722699999999 13.9201779999999999   T   T   T
  7.5612927000000001  6.8228160000000004 10.1131744900000005   T   T   T
  5.7027170700000003  1.1283011599999999  9.9085892300000005   T   T   T
  1.1747432700000000  3.7866047200000001 10.8710282700000000   T   T   T
  8.2026284199999999  5.0919873200000003 10.3471547600000005   T   T   T
  8.2211296800000007  1.0381295200000000 17.6401280599999986   T   T   T
  7.1355516799999998  7.7145510000000002  9.9845674599999992   T   T   T
  8.9796017799999994 -0.6848602700000000 12.0176161599999993   T   T   T
  5.5461794299999996  8.1529034899999999 18.4986618800000002   T   T   T
  6.8099758599999998  5.6169319299999998 17.7099780799999991   T   T   T
  5.3742222300000000  8.2005962799999992 11.5928160699999996   T   T   T
  2.6226339699999999  1.9462434900000001 18.7674334700000003   T   T   T
  7.7802445799999997  6.1511333199999996 14.8106233100000004   T   T   T
  1.8092284100000000  6.3673100199999997 13.0484770999999995   T   T   T
 -1.6855503599999999  4.5760059000000002 18.4983846900000017   T   T   T
  1.3192565900000000  2.7702458000000001 16.1909951200000002   T   T   T
  9.6323968099999995  5.8952467899999998 12.3503668500000003   T   T   T
  5.4741708100000004  4.8999104100000004 13.3771111000000005   T   T   T
  4.7277525999999996  4.9503694800000000 11.0051033599999997   T   T   T
  7.0478011399999998  2.4989081899999999 13.9484747000000002   T   T   T
  9.3874326000000003  9.0441788299999999 15.4849326699999992   T   T   T
 10.1679930800000005  1.5418884500000001 10.9506791000000003   T   T   T
  3.1283413499999999  0.8873700800000000 12.8096402600000001   T   T   T
  1.4291140400000000  2.8633477300000001 11.2672203500000006   T   T   T
  3.0257425699999998  4.8714628500000003 14.5554893399999994   T   T   T
  4.7716410199999997  0.8897426500000000 15.0464967299999994   T   T   T
  3.7889897000000001  2.8046018099999999 10.0001471899999999   T   T   T
  3.4428065200000000  7.3745730199999997 10.1418583699999996   T   T   T
  5.6899850900000004  1.0498347400000001 10.9086165000000008   T   T   T
  1.2162708000000000  8.9878476599999999 13.4825618699999996   T   T   T
  0.0806859900000000  2.6443649300000001 13.8089429300000006   T   T   T
  0.9806531000000001  8.2152923999999992 11.0414606800000001   T   T   T
  3.1300565800000002  6.2891434899999998 16.6294050800000015   T   T   T
  4.9758721699999997  8.1662379299999994 14.3581496899999994   T   T   T
  7.8709986000000001  2.5224712199999999 11.5413885900000004   T   T   T
 11.7829070599999994  7.1182772500000002 17.1300588199999986   T   T   T
  0.8975361800000000  5.2193740100000001 10.5966807299999992   T   T   T
 -1.5169011500000000  2.9010206900000002 16.5900552300000008   T   T   T
  0.9921073300000000 -0.0702726600000000 18.8300384799999989   T   T   T
  5.1357197200000000  1.0272929500000001 17.7457097799999985   T   T   T
